12 48 9 10
20 19 10 16 1 17 9 17 6 10 2 6 7 13 7 7 4 14 8 11 20 19 10 7 19 15 16 17 13 17 14 12 18 6 3 11 7 2 2 10 14 7 11 19 19 20 4 9 
0.62 2.57 7.27 6.82 11.18 15.65 12.06 13.78 2.5 10.95 1.36 11.99 14.77 8.58 13.28 7.57 3.35 13.12 14.9 0.96 9.48 10.42 6.43 7.1 12.92 7.92 4.29 12.93 0.32 5.1 14.97 10.48 10.26 0.59 9.45 11.59 6.57 0.11 11.03 3.9 3.46 2.47 6.98 12.54 8.73 10.67 10.75 8.73 
0.92 0.9 10.45 6.17 14.07 6.61 6.36 9.69 5.22 8.97 7.38 14.89 9.12 7.27 9.96 4.36 10.6 13.78 11.71 7.55 6 3.15 2.71 13.86 15.87 15.76 0.32 6.55 7.98 5.49 11.3 6.67 2.21 0.85 15.97 15.35 6.3 1.48 8.3 4.5 14.12 0.77 8.89 8.64 4.95 15.74 4.24 15.27 
13.71 5.67 3.86 7.96 5.47 11.44 10.91 11.66 15.58 1.32 10.62 6.84 0.21 12.21 7.42 6.11 9.24 2.36 6.28 8.1 12.85 9.19 15.46 6.31 12.05 6.08 13.88 11.42 10.89 15.56 6.21 4.75 4.59 0.13 12.98 11.76 14.72 11.21 5.83 14.81 15.95 1.23 2.48 8.03 10.63 11.64 7.66 15.85 
13.44 10.45 9.13 3.18 6.13 14.28 10.13 5.06 12.24 2.62 7.79 2.81 0.41 12.49 6.16 5.41 1.21 5.36 2.72 10.84 3.65 14.76 0.87 0.5 12.83 1.28 6.86 14.23 2.57 3.45 15.65 10.06 2.58 6.52 5.71 12.49 13.85 8.69 6.31 6.94 1.84 2.87 9.03 8.37 3.78 3.1 4.79 5 
14.28 10.65 6.01 3.4 12.42 5.8 4.7 4 9.47 6.12 0.46 7.53 7.5 8.23 5.33 15.5 6.66 14.04 7.34 11.49 10.93 10.5 2.53 2.12 8.05 2.1 1.73 3.21 13.96 15.68 5.11 12.38 15.56 11.48 2.19 9.87 4.53 6.05 10.38 14.25 7.02 7.36 12.1 14.59 15.76 6.32 5.04 2.15 
10.21 14.47 15.6 8.77 13.95 1.59 5.74 0.45 9.45 6.77 14.82 1.67 15.35 13.93 3.55 15.4 11.74 11.69 15.85 8.31 1.14 13.11 11.43 15.74 14.76 10.99 12.44 6.11 11.06 11.54 5.12 2.89 13.3 0.9 14.36 15.88 15.66 10.03 9.9 1.46 5.33 14.11 5.92 3.31 14.14 12.67 9.65 8.16 
14.72 6.28 4.24 5.84 3.63 8.57 5.86 5.2 7.7 11.35 4.61 4.93 11.73 0.18 11.28 2.56 10.39 8.47 9.12 1.84 6.74 13.39 3.1 6.58 3.12 4.56 6.63 11.9 13.53 13.73 13.36 5.19 14.44 9.82 6.2 5.56 5.01 4.59 6.12 11.95 3.81 12.57 0.2 12.93 11.7 13.37 7.07 6.94 
0.29 0.93 7.18 13.71 8.34 13.9 12.89 12.33 13.39 14.95 10.35 0.94 11.11 1.13 4.49 1.47 12.4 10.05 3.02 0.89 4.34 3.94 1.12 4.54 11.86 9.53 0.21 12.41 3.37 6.68 4.9 7.05 6.4 12.44 4.16 8.07 0.25 2.52 4.12 12.03 10.59 0.03 8.71 3.94 12.83 9.31 3.23 5.69 
6.3 12.4 8.7 12.07 12.72 15.27 6.6 0.85 0.33 3.79 10.69 13.67 4.71 5.5 4.55 15.16 14.87 0.76 5.15 1.35 3.82 4.06 12.46 4.07 12.39 11.28 12.36 6.6 10.23 8.94 11.4 5.76 2.64 13.9 13.31 11.55 11.29 7.53 13.04 12.3 6.3 14.08 15.41 11.3 6.84 10.22 9.26 1.32 
8 8 8 8 8 8 8 8 8 8 8 8 8 8 8 8 8 8 8 8 8 8 8 8 8 8 8 8 8 8 8 8 8 8 8 8 8 8 8 8 8 8 8 8 8 8 8 8 
11.95 13.28 12.62 14.43 10.18 3.14 10.69 10.41 2.02 12.18 4.66 11.76 1.16 11.51 9.71 0.06 15.39 0.27 15.67 4.59 7.1 10.82 10.12 15.15 2.34 15.19 8.73 7.2 8.41 11.64 3.12 2.26 10.49 9.9 8.68 15.37 11.37 10.06 2.85 4.87 4 5.33 3.72 11.45 5.15 9.17 1.21 12.58 
1.88 11.04 7.95 10.22 7.33 9.63 2.65 3.33 11.96 13.34 0.53 9.28 14.46 3.64 16 15.69 15.93 0.47 15.98 7.45 15.62 11.35 1.91 9.07 12.8 12.54 13.74 14.47 7.08 13.85 8.37 9.53 7.43 1.61 4.01 11.81 13.61 12.89 4.59 0.47 13.9 6.14 10.15 5.77 3.1 5.29 9.15 0.71 
1 1 1 1 1 1 1 1 1 1 1 1 1 1 1 1 1 1 1 1 1 1 1 1 1 1 1 1 1 1 1 1 1 1 1 1 1 1 1 1 1 1 1 1 1 1 1 1 
1 1 1 1 1 1 1 1 1 1 1 1 1 1 1 1 1 1 1 1 1 1 1 1 1 1 1 1 1 1 1 1 1 1 1 1 1 1 1 1 1 1 1 1 1 1 1 1 
1 1 1 1 1 1 1 1 1 1 1 1 1 1 1 1 1 1 1 1 1 1 1 1 1 1 1 1 1 1 1 1 1 1 1 1 1 1 1 1 1 1 1 1 1 1 1 1 
1 1 1 1 1 1 1 1 1 1 1 1 1 1 1 1 1 1 1 1 1 1 1 1 1 1 1 1 1 1 1 1 1 1 1 1 1 1 1 1 1 1 1 1 1 1 1 1 
1 1 1 1 1 1 1 1 1 1 1 1 1 1 1 1 1 1 1 1 1 1 1 1 1 1 1 1 1 1 1 1 1 1 1 1 1 1 1 1 1 1 1 1 1 1 1 1 
1 1 1 1 1 1 1 1 1 1 1 1 1 1 1 1 1 1 1 1 1 1 1 1 1 1 1 1 1 1 1 1 1 1 1 1 1 1 1 1 1 1 1 1 1 1 1 1 
1 1 1 1 1 1 1 1 1 1 1 1 1 1 1 1 1 1 1 1 1 1 1 1 1 1 1 1 1 1 1 1 1 1 1 1 1 1 1 1 1 1 1 1 1 1 1 1 
1 1 1 1 1 1 1 1 1 1 1 1 1 1 1 1 1 1 1 1 1 1 1 1 1 1 1 1 1 1 1 1 1 1 1 1 1 1 1 1 1 1 1 1 1 1 1 1 
1 1 1 1 1 1 1 1 1 1 1 1 1 1 1 1 1 1 1 1 1 1 1 1 1 1 1 1 1 1 1 1 1 1 1 1 1 1 1 1 1 1 1 1 1 1 1 1 
1 1 1 1 1 1 1 1 1 1 1 1 1 1 1 1 1 1 1 1 1 1 1 1 1 1 1 1 1 1 1 1 1 1 1 1 1 1 1 1 1 1 1 1 1 1 1 1 
1 1 1 1 1 1 1 1 1 1 1 1 1 1 1 1 1 1 1 1 1 1 1 1 1 1 1 1 1 1 1 1 1 1 1 1 1 1 1 1 1 1 1 1 1 1 1 1 
1 1 1 1 1 1 1 1 1 1 1 1 1 1 1 1 1 1 1 1 1 1 1 1 1 1 1 1 1 1 1 1 1 1 1 1 1 1 1 1 1 1 1 1 1 1 1 1 
0.01 0.01 0.01 0.01 0.01 0.01 0.01 0.01 0.01 0.01 0.01 0.01 0.01 0.01 0.01 0.01 0.01 0.01 0.01 0.01 0.01 0.01 0.01 0.01 0.01 0.01 0.01 0.01 0.01 0.01 0.01 0.01 0.01 0.01 0.01 0.01 0.01 0.01 0.01 0.01 0.01 0.01 0.01 0.01 0.01 0.01 0.01 0.01 
0.02 0.02 0.02 0.02 0.02 0.02 0.02 0.02 0.02 0.02 0.02 0.02 0.02 0.02 0.02 0.02 0.02 0.02 0.02 0.02 0.02 0.02 0.02 0.02 0.02 0.02 0.02 0.02 0.02 0.02 0.02 0.02 0.02 0.02 0.02 0.02 0.02 0.02 0.02 0.02 0.02 0.02 0.02 0.02 0.02 0.02 0.02 0.02 
0.03 0.03 0.03 0.03 0.03 0.03 0.03 0.03 0.03 0.03 0.03 0.03 0.03 0.03 0.03 0.03 0.03 0.03 0.03 0.03 0.03 0.03 0.03 0.03 0.03 0.03 0.03 0.03 0.03 0.03 0.03 0.03 0.03 0.03 0.03 0.03 0.03 0.03 0.03 0.03 0.03 0.03 0.03 0.03 0.03 0.03 0.03 0.03 
0.04 0.04 0.04 0.04 0.04 0.04 0.04 0.04 0.04 0.04 0.04 0.04 0.04 0.04 0.04 0.04 0.04 0.04 0.04 0.04 0.04 0.04 0.04 0.04 0.04 0.04 0.04 0.04 0.04 0.04 0.04 0.04 0.04 0.04 0.04 0.04 0.04 0.04 0.04 0.04 0.04 0.04 0.04 0.04 0.04 0.04 0.04 0.04 
0.05 0.05 0.05 0.05 0.05 0.05 0.05 0.05 0.05 0.05 0.05 0.05 0.05 0.05 0.05 0.05 0.05 0.05 0.05 0.05 0.05 0.05 0.05 0.05 0.05 0.05 0.05 0.05 0.05 0.05 0.05 0.05 0.05 0.05 0.05 0.05 0.05 0.05 0.05 0.05 0.05 0.05 0.05 0.05 0.05 0.05 0.05 0.05 
0.06 0.06 0.06 0.06 0.06 0.06 0.06 0.06 0.06 0.06 0.06 0.06 0.06 0.06 0.06 0.06 0.06 0.06 0.06 0.06 0.06 0.06 0.06 0.06 0.06 0.06 0.06 0.06 0.06 0.06 0.06 0.06 0.06 0.06 0.06 0.06 0.06 0.06 0.06 0.06 0.06 0.06 0.06 0.06 0.06 0.06 0.06 0.06 
0.07 0.07 0.07 0.07 0.07 0.07 0.07 0.07 0.07 0.07 0.07 0.07 0.07 0.07 0.07 0.07 0.07 0.07 0.07 0.07 0.07 0.07 0.07 0.07 0.07 0.07 0.07 0.07 0.07 0.07 0.07 0.07 0.07 0.07 0.07 0.07 0.07 0.07 0.07 0.07 0.07 0.07 0.07 0.07 0.07 0.07 0.07 0.07 
0.08 0.08 0.08 0.08 0.08 0.08 0.08 0.08 0.08 0.08 0.08 0.08 0.08 0.08 0.08 0.08 0.08 0.08 0.08 0.08 0.08 0.08 0.08 0.08 0.08 0.08 0.08 0.08 0.08 0.08 0.08 0.08 0.08 0.08 0.08 0.08 0.08 0.08 0.08 0.08 0.08 0.08 0.08 0.08 0.08 0.08 0.08 0.08 
0.09 0.09 0.09 0.09 0.09 0.09 0.09 0.09 0.09 0.09 0.09 0.09 0.09 0.09 0.09 0.09 0.09 0.09 0.09 0.09 0.09 0.09 0.09 0.09 0.09 0.09 0.09 0.09 0.09 0.09 0.09 0.09 0.09 0.09 0.09 0.09 0.09 0.09 0.09 0.09 0.09 0.09 0.09 0.09 0.09 0.09 0.09 0.09 
0.1 0.1 0.1 0.1 0.1 0.1 0.1 0.1 0.1 0.1 0.1 0.1 0.1 0.1 0.1 0.1 0.1 0.1 0.1 0.1 0.1 0.1 0.1 0.1 0.1 0.1 0.1 0.1 0.1 0.1 0.1 0.1 0.1 0.1 0.1 0.1 0.1 0.1 0.1 0.1 0.1 0.1 0.1 0.1 0.1 0.1 0.1 0.1 
0.5 0.5 0.5 0.5 0.5 0.5 0.5 0.5 0.5 0.5 0.5 0.5 0.5 0.5 0.5 0.5 0.5 0.5 0.5 0.5 0.5 0.5 0.5 0.5 0.5 0.5 0.5 0.5 0.5 0.5 0.5 0.5 0.5 0.5 0.5 0.5 0.5 0.5 0.5 0.5 0.5 0.5 0.5 0.5 0.5 0.5 0.5 0.5 
1 1 1 1 1 1 1 1 1 1 1 1 1 1 1 1 1 1 1 1 1 1 1 1 1 1 1 1 1 1 1 1 1 1 1 1 1 1 1 1 1 1 1 1 1 1 1 1 
